data/solutions/recovery/wellformed/moderate/flexible/wellformed_moderate_instance76/25.sol
Elapsed time: 0.02
Upper bound: 3596.0
Planning weighted value: 248158.0
C[0]=3596.0
C[1]=2916.0
C[2]=2546.0
C[3]=223.0
C[4]=0.0
C[5]=0.0
y[0]=1
y[1]=1
y[2]=0
y[3]=0
y[4]=0
y[5]=0
y[6]=1
y[7]=1
y[8]=0
y[9]=0
y[10]=2
y[11]=1
y[12]=0
y[13]=1
y[14]=2
y[15]=1
y[16]=0
y[17]=2
y[18]=3
y[19]=2
